16 6 
53 97 
82 35 
40 7 
84 24 
55 46 
48 45 
70 19 
95 24 
7 37 
14 88 
56 41 
8 27 
49 74 
46 62 
85 62 
20 91 
11 3 
26 3 
62 62 
28 69 
61 28 
14 83 
47 62 
7 6 
99 73 
94 7 
14 3 
35 63 
29 33 
77 15 
47 50 
58 58 
5 84 
62 67 
47 42 
88 60 
22 2 
43 69 
16 50 
76 68 
23 70 
75 89 
25 10 
5 55 
95 82 
22 42 
84 80 
1 89 
64 15 
